
Log started (V11.0.0) Wed May 14 17:24:49 2008

Tried aggregator 1 time.
Reduced MIP has 150 rows, 5001 columns, and 10050 nonzeros.
Presolve time =    0.05 sec.
Clique table members: 100.
MIP emphasis: balance optimality and feasibility.
MIP search method: dynamic search.
Parallel mode: none, using 1 thread.
Root relaxation solution time =    0.20 sec.

        Nodes                                         Cuts/
   Node  Left     Objective  IInf  Best Integer     Best Node    ItCnt     Gap

*     0+    0                         2169.0000       63.2430      599   97.08%
*     0+    0                          111.0000       63.2430      599   43.02%
      0     0       64.0000    87      111.0000      Fract: 2      655   42.34%
*     0+    0                          101.0000       64.0000      655   36.63%
      0     0       64.7514    90      101.0000       Cuts: 7     1214   35.89%
*     0+    0                          100.0000       64.7514     1214   35.25%
      0     0       70.4957    86      100.0000      Cuts: 42     1663   29.50%
*     0+    0                           93.0000       70.4957     1663   24.20%
      0     0       70.7625    83       93.0000      Cuts: 11     1720   23.91%
*     0+    0                           89.0000       70.7625     1720   20.49%
      0     0       70.8751    87       89.0000       Cuts: 7     1770   20.37%
*     0+    0                           85.0000       70.8751     1770   16.62%
      0     0       71.4079    82       85.0000      Cuts: 10     1903   15.99%
*     0+    0                           81.0000       71.4079     1903   11.84%
      0     0       71.8375    81       81.0000       Cuts: 6     1946   11.31%
      0     0       72.0038    76       81.0000       Cuts: 8     2006   11.11%
      0     0       72.4384    83       81.0000      Cuts: 10     2093   10.57%
      0     0       72.9128    75       81.0000       Cuts: 8     2185    9.98%
*     0+    0                           80.0000       72.9128     2185    8.86%
      0     0       73.0785    70       80.0000       Cuts: 6     2210    8.65%
      0     0       73.1450    65       80.0000       Cuts: 5     2242    8.57%
      0     0       73.3788    68       80.0000       Cuts: 5     2270    8.28%
      0     0       73.4045    67       80.0000   ZeroHalf: 1     2278    8.24%
      0     0       73.4122    67       80.0000   ZeroHalf: 1     2282    8.23%
      0     0       73.4213    69       80.0000       Cuts: 2     2292    8.22%
*     0+    0                           79.0000       73.4213     2292    7.06%
*     0+    0                           77.0000       73.4213     2292    4.65%

Repeating presolve.
Tried aggregator 1 time.
MIP Presolve eliminated 12 rows and 1691 columns.
MIP Presolve modified 1442 coefficients.
Reduced MIP has 138 rows, 3310 columns, and 6656 nonzeros.
Tried aggregator 1 time.
Represolve time =    0.22 sec.
Clique table members: 333.
MIP emphasis: balance optimality and feasibility.
MIP search method: dynamic search.
Parallel mode: none, using 1 thread.
Root relaxation solution time =    0.08 sec.

        Nodes                                         Cuts/
   Node  Left     Objective  IInf  Best Integer     Best Node    ItCnt     Gap

      0     0       74.9942    82       77.0000       74.9942      609    2.60%
      0     2       74.9942    82       77.0000       74.9942      609    2.60%
    100    73       76.0000    31       77.0000       75.0548     4241    2.53%
    200   143       76.0000    29       77.0000       75.0548     9007    2.53%
    300   215       76.0000    24       77.0000       75.0548    12029    2.53%
    400   151    infeasible             77.0000       76.0000    37078    1.30%
    500    51    infeasible             77.0000       76.0000    69283    1.30%

Cover cuts applied:  10
Implied bound cuts applied:  1
Mixed integer rounding cuts applied:  37
Zero-half cuts applied:  2

Solution pool: 11 solutions saved.

MIP - Integer optimal solution:  Objective = 7.7000000000e+001
Solution time =   14.81 sec.  Iterations = 84831  Nodes = 552


Incumbent solution
Variable Name           Solution Value
Cmax                         77.000000
X_1_44                        1.000000
X_2_10                        1.000000
X_3_1                         1.000000
X_4_17                        1.000000
X_5_40                        1.000000
X_6_46                        1.000000
X_7_17                        1.000000
X_8_18                        1.000000
X_9_30                        1.000000
X_10_1                        1.000000
X_11_50                       1.000000
X_12_34                       1.000000
X_13_50                       1.000000
X_14_22                       1.000000
X_15_1                        1.000000
X_16_30                       1.000000
X_17_28                       1.000000
X_18_18                       1.000000
X_19_30                       1.000000
X_20_38                       1.000000
X_21_18                       1.000000
X_22_26                       1.000000
X_23_30                       1.000000
X_24_44                       1.000000
X_25_39                       1.000000
X_26_19                       1.000000
X_27_30                       1.000000
X_28_40                       1.000000
X_29_11                       1.000000
X_30_28                       1.000000
X_31_7                        1.000000
X_32_30                       1.000000
X_33_25                       1.000000
X_34_22                       1.000000
X_35_18                       1.000000
X_36_31                       1.000000
X_37_43                       1.000000
X_38_4                        1.000000
X_39_35                       1.000000
X_40_35                       1.000000
X_41_47                       1.000000
X_42_50                       1.000000
X_43_48                       1.000000
X_44_50                       1.000000
X_45_10                       1.000000
X_46_43                       1.000000
X_47_28                       1.000000
X_48_40                       1.000000
X_49_22                       1.000000
X_50_18                       1.000000
X_51_30                       1.000000
X_52_26                       1.000000
X_53_45                       1.000000
X_54_18                       1.000000
X_55_44                       1.000000
X_56_46                       1.000000
X_57_41                       1.000000
X_58_18                       1.000000
X_59_18                       1.000000
X_60_13                       1.000000
X_61_47                       1.000000
X_62_16                       1.000000
X_63_35                       1.000000
X_64_11                       1.000000
X_65_45                       1.000000
X_66_29                       1.000000
X_67_11                       1.000000
X_68_15                       1.000000
X_69_18                       1.000000
X_70_44                       1.000000
X_71_23                       1.000000
X_72_30                       1.000000
X_73_33                       1.000000
X_74_32                       1.000000
X_75_12                       1.000000
X_76_22                       1.000000
X_77_49                       1.000000
X_78_7                        1.000000
X_79_19                       1.000000
X_80_17                       1.000000
X_81_4                        1.000000
X_82_39                       1.000000
X_83_44                       1.000000
X_84_22                       1.000000
X_85_22                       1.000000
X_86_40                       1.000000
X_87_44                       1.000000
X_88_50                       1.000000
X_89_19                       1.000000
X_90_28                       1.000000
X_91_32                       1.000000
X_92_14                       1.000000
X_93_8                        1.000000
X_94_11                       1.000000
X_95_29                       1.000000
X_96_14                       1.000000
X_97_3                        1.000000
X_98_30                       1.000000
X_99_30                       1.000000
X_100_30                      1.000000
All other variables in the range 1-5001 are 0.
